(set-logic QF_UF)
(declare-fun A0 () Bool)
(declare-fun A1 () Bool)
(declare-fun A2 () Bool)
(declare-fun A3 () Bool)
(declare-fun A4 () Bool)
(declare-fun A5 () Bool)
(declare-fun A6 () Bool)
(declare-fun A7 () Bool)
(declare-fun A8 () Bool)
(declare-fun A9 () Bool)
(declare-fun A10 () Bool)
(declare-fun A11 () Bool)
(declare-fun A12 () Bool)
(declare-fun A13 () Bool)
(declare-fun A14 () Bool)
(declare-fun A15 () Bool)
(declare-fun A16 () Bool)
(declare-fun A17 () Bool)
(declare-fun A18 () Bool)
(declare-fun A19 () Bool)
(declare-fun A20 () Bool)
(declare-fun A21 () Bool)
(declare-fun A22 () Bool)
(declare-fun A23 () Bool)
(declare-fun A24 () Bool)
(assert (let ((.def_0 (not A15))) (let ((.def_1 (not A1))) (let ((.def_2 (and .def_1 .def_0))) (let ((.def_3 (not A2))) (let ((.def_4 (= A8 .def_3))) (let ((.def_5 (and .def_4 .def_2))) (let ((.def_6 (and A7 A22))) (let ((.def_7 (not .def_6))) (let ((.def_8 (not A4))) (let ((.def_9 (and .def_8 A11))) (let ((.def_10 (not .def_9))) (let ((.def_11 (and .def_10 .def_7))) (let ((.def_12 (and .def_11 .def_5))) (let ((.def_13 (not A13))) (let ((.def_14 (and .def_3 .def_13))) (let ((.def_15 (not .def_14))) (let ((.def_16 (not A3))) (let ((.def_17 (and .def_3 .def_16))) (let ((.def_18 (not .def_17))) (let ((.def_19 (or .def_18 .def_15))) (let ((.def_20 (not A24))) (let ((.def_21 (not A0))) (let ((.def_22 (or .def_21 .def_20))) (let ((.def_23 (not .def_22))) (let ((.def_24 (not A17))) (let ((.def_25 (or A7 .def_24))) (let ((.def_26 (not .def_25))) (let ((.def_27 (and .def_26 .def_23))) (let ((.def_28 (not .def_27))) (let ((.def_29 (or .def_28 .def_19))) (let ((.def_30 (and .def_29 .def_12))) (let ((.def_31 (not .def_30))) (let ((.def_32 (not A21))) (let ((.def_33 (and .def_32 A15))) (let ((.def_34 (not A10))) (let ((.def_35 (or .def_34 A21))) (let ((.def_36 (and .def_35 .def_33))) (let ((.def_37 (= A3 .def_16))) (let ((.def_38 (not .def_37))) (let ((.def_39 (not A11))) (let ((.def_40 (and A7 .def_39))) (let ((.def_41 (not .def_40))) (let ((.def_42 (or .def_41 .def_38))) (let ((.def_43 (not .def_42))) (let ((.def_44 (or .def_43 .def_36))) (let ((.def_45 (not A5))) (let ((.def_46 (or A24 .def_45))) (let ((.def_47 (and A3 .def_13))) (let ((.def_48 (not .def_47))) (let ((.def_49 (and .def_48 .def_46))) (let ((.def_50 (not A19))) (let ((.def_51 (and .def_50 A15))) (let ((.def_52 (not .def_51))) (let ((.def_53 (not A14))) (let ((.def_54 (= .def_53 A1))) (let ((.def_55 (not .def_54))) (let ((.def_56 (or .def_55 .def_52))) (let ((.def_57 (not .def_56))) (let ((.def_58 (and .def_57 .def_49))) (let ((.def_59 (not .def_58))) (let ((.def_60 (or .def_59 .def_44))) (let ((.def_61 (not .def_60))) (let ((.def_62 (or .def_61 .def_31))) (let ((.def_63 (not .def_62))) (let ((.def_64 (or .def_13 A22))) (let ((.def_65 (not .def_64))) (let ((.def_66 (or .def_65 .def_35))) (let ((.def_67 (or .def_34 A18))) (let ((.def_68 (not .def_67))) (let ((.def_69 (not A18))) (let ((.def_70 (or .def_32 .def_69))) (let ((.def_71 (or .def_70 .def_68))) (let ((.def_72 (not .def_71))) (let ((.def_73 (= .def_72 .def_66))) (let ((.def_74 (not .def_73))) (let ((.def_75 (and A0 A16))) (let ((.def_76 (not .def_75))) (let ((.def_77 (or A2 A13))) (let ((.def_78 (and .def_77 .def_76))) (let ((.def_79 (not .def_78))) (let ((.def_80 (not A12))) (let ((.def_81 (or A23 .def_80))) (let ((.def_82 (not .def_81))) (let ((.def_83 (and .def_50 .def_69))) (let ((.def_84 (not .def_83))) (let ((.def_85 (or .def_84 .def_82))) (let ((.def_86 (or .def_85 .def_79))) (let ((.def_87 (and .def_86 .def_74))) (let ((.def_88 (not .def_87))) (let ((.def_89 (not A20))) (let ((.def_90 (or A13 .def_89))) (let ((.def_91 (or A9 .def_34))) (let ((.def_92 (not .def_91))) (let ((.def_93 (or .def_92 .def_90))) (let ((.def_94 (not .def_93))) (let ((.def_95 (not A9))) (let ((.def_96 (or A24 .def_95))) (let ((.def_97 (not A6))) (let ((.def_98 (not A16))) (let ((.def_99 (and .def_98 .def_97))) (let ((.def_100 (and .def_99 .def_96))) (let ((.def_101 (not .def_100))) (let ((.def_102 (and .def_101 .def_94))) (let ((.def_103 (not .def_102))) (let ((.def_104 (not A22))) (let ((.def_105 (and A18 .def_104))) (let ((.def_106 (not .def_105))) (let ((.def_107 (and .def_21 .def_8))) (let ((.def_108 (= .def_107 .def_106))) (let ((.def_109 (not .def_108))) (let ((.def_110 (or .def_16 A18))) (let ((.def_111 (not A7))) (let ((.def_112 (and A1 .def_111))) (let ((.def_113 (not .def_112))) (let ((.def_114 (or .def_113 .def_110))) (let ((.def_115 (and .def_114 .def_109))) (let ((.def_116 (not .def_115))) (let ((.def_117 (or .def_116 .def_103))) (let ((.def_118 (not .def_117))) (let ((.def_119 (and .def_118 .def_88))) (let ((.def_120 (or .def_119 .def_63))) (let ((.def_121 (not .def_120))) .def_121)))))))))))))))))))))))))))))))))))))))))))))))))))))))))))))))))))))))))))))))))))))))))))))))))))))))))))))))))))))))))))
(check-sat)
